outputs/case_257.model.txt
credit_is_secured = False
major_shareholder_total_share_percent = 2
invest_in_futures = False
remove_or_suspend_director_or_supervisor = False
other_necessary_measures = False
adjustment_extension_times = 0
investment_performed = True
revoke_statutory_meeting_resolution = True
apply_company_change_registration = False
remove_manager_or_staff = False
remove_director_or_supervisor = False
regulator_order_adjust = True
credit_conditions_better_than_similar = True
adjustment_period_years = 0
invest_in_bank = True
credit_to_staff = False
violate_law = True
board_attendance_ratio = 6667/10000
invest_in_credit_card = False
invest_in_foreign_financial_institution = False
subsidiary_capital_reduction = False
not_use_fhc_name = False
must_liquidate = False
invest_in_other_related_financial = False
notify_economic_ministry_to_cancel_registration = False
invest_in_insurance = False
order_dispose_subsidiary_shares = False
credit_is_unsecured = False
subsidiary_investment_exceed_limit = False
impede_sound_operation = True
dispose_shares_within_deadline = False
suspend_subsidiary_business_part_or_all = True
credit_to_related_person_of_responsible_or_credit_staff = True
invest_in_securities = False
board_approval_ratio = 3/4
invest_in_fhc = True
invest_in_trust = False
regulator_impose_sanctions = True
credit_amount_to_enterprise_percent = 717/10
regulator_defined_threshold = 50000000
credit_amount = 100000000
adjustment_extension_years_per_time = 0
loan_is_government_loan = True
capital_reduction_approval_applied = False
shares_have_no_voting_right = False
shares_not_counted_in_total = False
invest_in_venture_capital = False
credit_has_full_collateral = False
revoke_permit = False
credit_to_responsible_person = True
subsidiary_business_exceed_limit = False
loan_is_consumer_loan = False
credit_to_major_shareholder = False
invest_in_bill_finance = False
regulator_order_dispose_illegal_investment = True
major_shareholder_spouse_share_percent = 1/2
major_shareholder_minor_children_share_percent = 0
fhc_manager_is_venture_invested_company_manager = False
no_unsecured_credit_to_related_persons = True
revoke_permit_must_dispose_shares_and_restrict_name_use = True
investment_without_approval_prohibited = True
remove_director_supervisor_notify_economic_ministry = True
no_unsecured_credit_over_3_percent = True
regulator_order_disposal = True
subsidiary_business_management = True
investment_approved = True
excess_business_or_investment_must_adjust = True
investment_no_voting_rights_if_no_approval = True
major_shareholder_own_share_percent = 3/2
secured_credit_over_threshold_must_board_approval = True
sanction_types = 1
prohibited_manager_in_venture_invested_company = True
subsidiary_capital_reduction_approval_required = True
penalty = False
subsidiary_business_scope_ok = True
secured_credit_over_5_percent_requirements = True
consumer_and_government_loans_exempted = True
regulator_may_impose_sanctions = True
fail_to_dispose_shares_must_liquidate = True
subsidiary_business_investment = True
adjustment_period_limit = 1
major_shareholder_definition = 1